
******************************************************************************
This program contains Ipopt, a library for large-scale nonlinear optimization.
 Ipopt is released as open source code under the Eclipse Public License (EPL).
         For more information visit http://projects.coin-or.org/Ipopt
******************************************************************************

This is Ipopt version 3.12.6, running with linear solver ma57.

Number of nonzeros in equality constraint Jacobian...:        0
Number of nonzeros in inequality constraint Jacobian.:      135
Number of nonzeros in Lagrangian Hessian.............:      300

Total number of variables............................:      100
                     variables with only lower bounds:        0
                variables with lower and upper bounds:      100
                     variables with only upper bounds:        0
Total number of equality constraints.................:        0
Total number of inequality constraints...............:       12
        inequality constraints with only lower bounds:        7
   inequality constraints with lower and upper bounds:        0
        inequality constraints with only upper bounds:        5

iter    objective    inf_pr   inf_du lg(mu)  ||d||  lg(rg) alpha_du alpha_pr  ls
   0 -4.7344072e+00 1.00e+02 1.35e+01  -1.0 0.00e+00    -  0.00e+00 0.00e+00   0
   1 -5.9500422e+00 9.99e+01 1.35e+01  -1.0 5.78e+01    -  5.84e-04 5.87e-04f  1
   2 -1.3799796e+01 9.95e+01 1.43e+01  -1.0 9.94e+01    -  4.68e-04 4.13e-03f  1
   3 -4.3627703e+01 9.76e+01 1.43e+01  -1.0 1.24e+02    -  4.53e-03 1.93e-02f  1
   4 -6.5995782e+02 0.00e+00 2.31e+01  -1.0 9.86e+01    -  1.24e-02 1.00e+00f  1
   5 -9.5430991e+02 0.00e+00 1.14e+01  -1.0 3.40e+01    -  1.07e-01 5.53e-01f  1
   6 -1.1109366e+03 0.00e+00 8.37e+00  -1.0 3.84e+01    -  1.62e-01 2.70e-01f  1
   7 -1.2328651e+03 0.00e+00 6.35e+00  -1.0 3.51e+01    -  1.43e-01 2.42e-01f  1
   8 -1.3451800e+03 0.00e+00 4.53e+00  -1.0 3.98e+01    -  2.13e-01 2.86e-01f  1
   9 -1.4546189e+03 0.00e+00 3.00e+00  -1.0 4.90e+01    -  1.88e-01 3.68e-01f  1
iter    objective    inf_pr   inf_du lg(mu)  ||d||  lg(rg) alpha_du alpha_pr  ls
  10 -1.4888155e+03 0.00e+00 2.67e+00  -1.0 4.97e+01    -  3.62e-01 1.42e-01f  1
  11 -1.5339701e+03 0.00e+00 2.18e+00  -1.0 7.97e+01    -  3.20e-01 2.13e-01f  1
  12 -1.5744287e+03 0.00e+00 1.74e+00  -1.0 9.60e+01    -  3.41e-01 2.30e-01f  1
  13 -1.6197555e+03 0.00e+00 1.21e+00  -1.0 6.56e+01    -  1.47e-01 3.37e-01f  1
  14 -1.6555249e+03 0.00e+00 8.44e-01  -1.0 8.24e+01    -  2.67e-01 3.61e-01f  1
  15 -1.6819323e+03 0.00e+00 5.63e-01  -1.0 6.19e+01    -  3.69e-01 4.06e-01f  1
  16 -1.6986614e+03 0.00e+00 3.81e-01  -1.0 5.50e+01    -  3.65e-01 3.90e-01f  1
  17 -1.7099457e+03 0.00e+00 2.61e-01  -1.0 6.04e+01    -  5.12e-01 3.79e-01f  1
  18 -1.7264417e+03 0.00e+00 7.56e-02  -1.0 5.53e+01    -  9.23e-01 9.64e-01f  1
  19 -1.7273289e+03 0.00e+00 5.59e-02  -1.0 1.07e+02    -  9.72e-01 2.45e-01f  1
iter    objective    inf_pr   inf_du lg(mu)  ||d||  lg(rg) alpha_du alpha_pr  ls
  20 -1.7329480e+03 0.00e+00 1.52e-02  -1.7 1.74e+01    -  8.23e-01 1.00e+00f  1
  21 -1.7348496e+03 0.00e+00 4.32e-03  -2.5 1.24e+01    -  7.48e-01 8.89e-01f  1
  22 -1.7355052e+03 0.00e+00 6.92e-04  -3.8 1.30e+01    -  9.14e-01 9.66e-01f  1
  23 -1.7355571e+03 0.00e+00 3.02e-06  -3.8 7.63e-01    -  1.00e+00 1.00e+00f  1
  24 -1.7355694e+03 0.00e+00 1.05e-06  -5.7 9.80e-02    -  1.00e+00 9.96e-01f  1
  25 -1.7355696e+03 0.00e+00 5.04e-11  -8.6 1.50e-03    -  1.00e+00 1.00e+00f  1

Number of Iterations....: 25

                                   (scaled)                 (unscaled)
Objective...............:  -1.7355695797086896e+03   -1.7355695797086896e+03
Dual infeasibility......:   5.0357146828821702e-11    5.0357146828821702e-11
Constraint violation....:   0.0000000000000000e+00    0.0000000000000000e+00
Complementarity.........:   5.8283498192889899e-09    5.8283498192889899e-09
Overall NLP error.......:   5.8283498192889899e-09    5.8283498192889899e-09


Number of objective function evaluations             = 26
Number of objective gradient evaluations             = 26
Number of equality constraint evaluations            = 0
Number of inequality constraint evaluations          = 26
Number of equality constraint Jacobian evaluations   = 0
Number of inequality constraint Jacobian evaluations = 26
Number of Lagrangian Hessian evaluations             = 25
Total CPU secs in IPOPT (w/o function evaluations)   =      0.010
Total CPU secs in NLP function evaluations           =      0.000

EXIT: Optimal Solution Found.

************************ CUTEst statistics ************************


 Package used            :  IPOPT
 Problem                 :  HIMMELBI  
 # variables             =             100
 # constraints           =              12
 # objective functions   =        0.5300000E+02
 # objective gradients   =        0.2700000E+02
 # objective Hessians    =        0.2600000E+02
 # Hessian-vector prdct  =        0.0000000E+00
 # constraints functions =        0.5400000E+02
 # constraints gradients =        0.2800000E+02
 # constraints Hessians  =        0.2600000E+02
 Exit code               =               0
 Final f                 =  -0.1735570E+04
 Set up time             =            0.00 seconds
 Solve time              =            0.04 seconds


******************************************************************

System Time =       0.0109999999 s.
